[[1,4,5,7,12,17,19,26,38,50,63,70,71,77,83,84,87,92,95,99],[2,4,5,11,13,17,20,26,33,37,65,70,72,80,83,85,88,94,96,99],[3,5,6,11,14,19,20,24,38,40,42,70,76,82,84,87,90,94,96,99],[3,5,7,12,15,19,21,26,28,38,49,67,76,83,84,87,91,95,96,98],[21,22,27,31,36,37,37,38,41,42,42,44,46,47,48,51,54,61,67,71]]